\ SCIP STATISTICS
\   Problem name     : danoint
\   Variables        : 521 (56 binary, 0 integer, 0 implicit integer, 465 continuous)
\   Constraints      : 664
Minimize
 Obj: +1 x1
Subject to
 c1: +1 x2 +1 x3 +1 x4 +1 x5 +1 x6 +1 x7 +1 x8 = +2
 c2: +1 x9 +1 x10 +1 x11 +1 x12 +1 x13 +1 x14 +1 x15 = +2
 c3: +1 x16 +1 x17 +1 x18 +1 x19 +1 x20 +1 x21 +1 x22 = +2
 c4: +1 x23 +1 x24 +1 x25 +1 x26 +1 x27 +1 x28 +1 x29 = +2
 c5: +1 x30 +1 x31 +1 x32 +1 x33 +1 x34 +1 x35 +1 x36 = +2
 c6: +1 x37 +1 x38 +1 x39 +1 x40 +1 x41 +1 x42 +1 x43 = +2
 c7: +1 x44 +1 x45 +1 x46 +1 x47 +1 x48 +1 x49 +1 x50 = +2
 c8: +1 x51 +1 x52 +1 x53 +1 x54 +1 x55 +1 x56 +1 x57 = +2
 c9: +1 x9 +1 x16 +1 x23 +1 x30 +1 x37 +1 x44 +1 x51 = +2
 c10: +1 x2 +1 x17 +1 x24 +1 x31 +1 x38 +1 x45 +1 x52 = +2
 c11: +1 x3 +1 x10 +1 x25 +1 x32 +1 x39 +1 x46 +1 x53 = +2
 c12: +1 x4 +1 x11 +1 x18 +1 x33 +1 x40 +1 x47 +1 x54 = +2
 c13: +1 x5 +1 x12 +1 x19 +1 x26 +1 x41 +1 x48 +1 x55 = +2
 c14: +1 x6 +1 x13 +1 x20 +1 x27 +1 x34 +1 x49 +1 x56 = +2
 c15: +1 x7 +1 x14 +1 x21 +1 x28 +1 x35 +1 x42 +1 x57 = +2
 c16: +1 x8 +1 x15 +1 x22 +1 x29 +1 x36 +1 x43 +1 x50 = +2
 c17: +1 x58 -1 x59 -1 x60 -1 x61 -1 x62 -1 x63 -1 x64 -1 x65 = +0
 c18: +1 x66 -1 x67 -1 x68 -1 x69 -1 x70 -1 x71 -1 x72 -1 x73 = +0
 c19: +1 x74 -1 x75 -1 x76 -1 x77 -1 x78 -1 x79 -1 x80 -1 x81 = +0
 c20: +1 x82 -1 x83 -1 x84 -1 x85 -1 x86 -1 x87 -1 x88 -1 x89 = +0
 c21: +1 x90 -1 x91 -1 x92 -1 x93 -1 x94 -1 x95 -1 x96 -1 x97 = +0
 c22: +1 x98 -1 x99 -1 x100 -1 x101 -1 x102 -1 x103 -1 x104 -1 x105 = +0
 c23: +1 x106 -1 x107 -1 x108 -1 x109 -1 x110 -1 x111 -1 x112 -1 x113 = +0
 c24: +1 x114 -1 x115 -1 x116 -1 x117 -1 x118 -1 x119 -1 x120 -1 x121 = +0
 c25: +1 x122 -1 x123 -1 x124 -1 x125 -1 x126 -1 x127 -1 x128 -1 x129 = +0
 c26: +1 x130 -1 x131 -1 x132 -1 x133 -1 x134 -1 x135 -1 x136 -1 x137 = +0
 c27: +1 x138 -1 x139 -1 x140 -1 x141 -1 x142 -1 x143 -1 x144 -1 x145 = +0
 c28: +1 x146 -1 x147 -1 x148 -1 x149 -1 x150 -1 x151 -1 x152 -1 x153 = +0
 c29: +1 x154 -1 x155 -1 x156 -1 x157 -1 x158 -1 x159 -1 x160 -1 x161 = +0
 c30: +1 x162 -1 x163 -1 x164 -1 x165 -1 x166 -1 x167 -1 x168 -1 x169 = +0
 c31: +1 x170 -1 x171 -1 x172 -1 x173 -1 x174 -1 x175 -1 x176 -1 x177 = +0
 c32: +1 x178 -1 x179 -1 x180 -1 x181 -1 x182 -1 x183 -1 x184 -1 x185 = +0
 c33: +1 x186 -1 x187 -1 x188 -1 x189 -1 x190 -1 x191 -1 x192 -1 x193 = +0
 c34: +1 x194 -1 x195 -1 x196 -1 x197 -1 x198 -1 x199 -1 x200 -1 x201 = +0
 c35: +1 x202 -1 x203 -1 x204 -1 x205 -1 x206 -1 x207 -1 x208 -1 x209 = +0
 c36: +1 x210 -1 x211 -1 x212 -1 x213 -1 x214 -1 x215 -1 x216 -1 x217 = +0
 c37: +1 x218 -1 x219 -1 x220 -1 x221 -1 x222 -1 x223 -1 x224 -1 x225 = +0
 c38: +1 x226 -1 x227 -1 x228 -1 x229 -1 x230 -1 x231 -1 x232 -1 x233 = +0
 c39: +1 x234 -1 x235 -1 x236 -1 x237 -1 x238 -1 x239 -1 x240 -1 x241 = +0
 c40: +1 x242 -1 x243 -1 x244 -1 x245 -1 x246 -1 x247 -1 x248 -1 x249 = +0
 c41: +1 x250 -1 x251 -1 x252 -1 x253 -1 x254 -1 x255 -1 x256 -1 x257 = +0
 c42: +1 x258 -1 x259 -1 x260 -1 x261 -1 x262 -1 x263 -1 x264 -1 x265 = +0
 c43: +1 x266 -1 x267 -1 x268 -1 x269 -1 x270 -1 x271 -1 x272 -1 x273 = +0
 c44: +1 x274 -1 x275 -1 x276 -1 x277 -1 x278 -1 x279 -1 x280 -1 x281 = +0
 c45: +1 x282 -1 x283 -1 x284 -1 x285 -1 x286 -1 x287 -1 x288 -1 x289 = +0
 c46: +1 x290 -1 x291 -1 x292 -1 x293 -1 x294 -1 x295 -1 x296 -1 x297 = +0
 c47: +1 x298 -1 x299 -1 x300 -1 x301 -1 x302 -1 x303 -1 x304 -1 x305 = +0
 c48: +1 x306 -1 x307 -1 x308 -1 x309 -1 x310 -1 x311 -1 x312 -1 x313 = +0
 c49: +1 x314 -1 x315 -1 x316 -1 x317 -1 x318 -1 x319 -1 x320 -1 x321 = +0
 c50: +1 x322 -1 x323 -1 x324 -1 x325 -1 x326 -1 x327 -1 x328 -1 x329 = +0
 c51: +1 x330 -1 x331 -1 x332 -1 x333 -1 x334 -1 x335 -1 x336 -1 x337 = +0
 c52: +1 x338 -1 x339 -1 x340 -1 x341 -1 x342 -1 x343 -1 x344 -1 x345 = +0
 c53: +1 x346 -1 x347 -1 x348 -1 x349 -1 x350 -1 x351 -1 x352 -1 x353 = +0
 c54: +1 x354 -1 x355 -1 x356 -1 x357 -1 x358 -1 x359 -1 x360 -1 x361 = +0
 c55: +1 x362 -1 x363 -1 x364 -1 x365 -1 x366 -1 x367 -1 x368 -1 x369 = +0
 c56: +1 x370 -1 x371 -1 x372 -1 x373 -1 x374 -1 x375 -1 x376 -1 x377 = +0
 c57: +1 x378 -1 x379 -1 x380 -1 x381 -1 x382 -1 x383 -1 x384 -1 x385 = +0
 c58: +1 x386 -1 x387 -1 x388 -1 x389 -1 x390 -1 x391 -1 x392 -1 x393 = +0
 c59: +1 x394 -1 x395 -1 x396 -1 x397 -1 x398 -1 x399 -1 x400 -1 x401 = +0
 c60: +1 x402 -1 x403 -1 x404 -1 x405 -1 x406 -1 x407 -1 x408 -1 x409 = +0
 c61: +1 x410 -1 x411 -1 x412 -1 x413 -1 x414 -1 x415 -1 x416 -1 x417 = +0
 c62: +1 x418 -1 x419 -1 x420 -1 x421 -1 x422 -1 x423 -1 x424 -1 x425 = +0
 c63: +1 x426 -1 x427 -1 x428 -1 x429 -1 x430 -1 x431 -1 x432 -1 x433 = +0
 c64: +1 x434 -1 x435 -1 x436 -1 x437 -1 x438 -1 x439 -1 x440 -1 x441 = +0
 c65: +1 x442 -1 x443 -1 x444 -1 x445 -1 x446 -1 x447 -1 x448 -1 x449 = +0
 c66: +1 x450 -1 x451 -1 x452 -1 x453 -1 x454 -1 x455 -1 x456 -1 x457 = +0
 c67: +1 x458 -1 x459 -1 x460 -1 x461 -1 x462 -1 x463 -1 x464 -1 x465 = +0
 c68: +1 x466 -1 x467 -1 x468 -1 x469 -1 x470 -1 x471 -1 x472 -1 x473 = +0
 c69: +1 x474 -1 x475 -1 x476 -1 x477 -1 x478 -1 x479 -1 x480 -1 x481 = +0
 c70: +1 x482 -1 x483 -1 x484 -1 x485 -1 x486 -1 x487 -1 x488 -1 x489 = +0
 c71: +1 x490 -1 x491 -1 x492 -1 x493 -1 x494 -1 x495 -1 x496 -1 x497 = +0
 c72: +1 x498 -1 x499 -1 x500 -1 x501 -1 x502 -1 x503 -1 x504 -1 x505 = +0
 c73: +1 x59 -1 x123 -1 x131 -1 x139 -1 x147 -1 x155 -1 x163 +1 x179 +1 x235 +1 x291 +1 x347 +1 x403 +1 x459
  = +10
 c74: +1 x67 +1 x123 -1 x179 -1 x187 -1 x195 -1 x203 -1 x211 -1 x219 +1 x243 +1 x299 +1 x355 +1 x411 +1 x467
  = +7
 c75: +1 x75 +1 x131 +1 x187 -1 x235 -1 x243 -1 x251 -1 x259 -1 x267 -1 x275 +1 x307 +1 x363 +1 x419 +1 x475
  = +13
 c76: +1 x83 +1 x139 +1 x195 +1 x251 -1 x291 -1 x299 -1 x307 -1 x315 -1 x323 -1 x331 +1 x371 +1 x427 +1 x483
  = +12
 c77: +1 x91 +1 x147 +1 x203 +1 x259 +1 x315 -1 x347 -1 x355 -1 x363 -1 x371 -1 x379 -1 x387 +1 x435 +1 x491
  = +13
 c78: +1 x99 +1 x155 +1 x211 +1 x267 +1 x323 +1 x379 -1 x403 -1 x411 -1 x419 -1 x427 -1 x435 -1 x443 +1 x499
  = +6
 c79: +1 x107 +1 x163 +1 x219 +1 x275 +1 x331 +1 x387 +1 x443 -1 x459 -1 x467 -1 x475 -1 x483 -1 x491
  -1 x499 = +13
 c80: -1 x68 -1 x76 -1 x84 -1 x92 -1 x100 -1 x108 +1 x115 +1 x171 +1 x227 +1 x283 +1 x339 +1 x395 +1 x451
  = +14
 c81: +1 x68 +1 x124 -1 x171 -1 x188 -1 x196 -1 x204 -1 x212 -1 x220 +1 x244 +1 x300 +1 x356 +1 x412 +1 x468
  = +15
 c82: +1 x76 +1 x132 +1 x188 -1 x227 -1 x244 -1 x252 -1 x260 -1 x268 -1 x276 +1 x308 +1 x364 +1 x420 +1 x476
  = +13
 c83: +1 x84 +1 x140 +1 x196 +1 x252 -1 x283 -1 x300 -1 x308 -1 x316 -1 x324 -1 x332 +1 x372 +1 x428 +1 x484
  = +12
 c84: +1 x92 +1 x148 +1 x204 +1 x260 +1 x316 -1 x339 -1 x356 -1 x364 -1 x372 -1 x380 -1 x388 +1 x436 +1 x492
  = +9
 c85: +1 x100 +1 x156 +1 x212 +1 x268 +1 x324 +1 x380 -1 x395 -1 x412 -1 x420 -1 x428 -1 x436 -1 x444
  +1 x500 = +9
 c86: +1 x108 +1 x164 +1 x220 +1 x276 +1 x332 +1 x388 +1 x444 -1 x451 -1 x468 -1 x476 -1 x484 -1 x492
  -1 x500 = +9
 c87: -1 x60 -1 x77 -1 x85 -1 x93 -1 x101 -1 x109 +1 x116 +1 x172 +1 x228 +1 x284 +1 x340 +1 x396 +1 x452
  = +13
 c88: +1 x60 -1 x116 -1 x133 -1 x141 -1 x149 -1 x157 -1 x165 +1 x180 +1 x236 +1 x292 +1 x348 +1 x404 +1 x460
  = +9
 c89: +1 x77 +1 x133 +1 x189 -1 x228 -1 x236 -1 x253 -1 x261 -1 x269 -1 x277 +1 x309 +1 x365 +1 x421 +1 x477
  = +11
 c90: +1 x85 +1 x141 +1 x197 +1 x253 -1 x284 -1 x292 -1 x309 -1 x317 -1 x325 -1 x333 +1 x373 +1 x429 +1 x485
  = +6
 c91: +1 x93 +1 x149 +1 x205 +1 x261 +1 x317 -1 x340 -1 x348 -1 x365 -1 x373 -1 x381 -1 x389 +1 x437 +1 x493
  = +5
 c92: +1 x101 +1 x157 +1 x213 +1 x269 +1 x325 +1 x381 -1 x396 -1 x404 -1 x421 -1 x429 -1 x437 -1 x445
  +1 x501 = +11
 c93: +1 x109 +1 x165 +1 x221 +1 x277 +1 x333 +1 x389 +1 x445 -1 x452 -1 x460 -1 x477 -1 x485 -1 x493
  -1 x501 = +8
 c94: -1 x61 -1 x69 -1 x86 -1 x94 -1 x102 -1 x110 +1 x117 +1 x173 +1 x229 +1 x285 +1 x341 +1 x397 +1 x453
  = +7
 c95: +1 x61 -1 x117 -1 x125 -1 x142 -1 x150 -1 x158 -1 x166 +1 x181 +1 x237 +1 x293 +1 x349 +1 x405 +1 x461
  = +8
 c96: +1 x69 +1 x125 -1 x173 -1 x181 -1 x198 -1 x206 -1 x214 -1 x222 +1 x245 +1 x301 +1 x357 +1 x413 +1 x469
  = +15
 c97: +1 x86 +1 x142 +1 x198 +1 x254 -1 x285 -1 x293 -1 x301 -1 x318 -1 x326 -1 x334 +1 x374 +1 x430 +1 x486
  = +7
 c98: +1 x94 +1 x150 +1 x206 +1 x262 +1 x318 -1 x341 -1 x349 -1 x357 -1 x374 -1 x382 -1 x390 +1 x438 +1 x494
  = +6
 c99: +1 x102 +1 x158 +1 x214 +1 x270 +1 x326 +1 x382 -1 x397 -1 x405 -1 x413 -1 x430 -1 x438 -1 x446
  +1 x502 = +11
 c100: +1 x110 +1 x166 +1 x222 +1 x278 +1 x334 +1 x390 +1 x446 -1 x453 -1 x461 -1 x469 -1 x486 -1 x494
  -1 x502 = +9
 c101: -1 x62 -1 x70 -1 x78 -1 x95 -1 x103 -1 x111 +1 x118 +1 x174 +1 x230 +1 x286 +1 x342 +1 x398 +1 x454
  = +8
 c102: +1 x62 -1 x118 -1 x126 -1 x134 -1 x151 -1 x159 -1 x167 +1 x182 +1 x238 +1 x294 +1 x350 +1 x406
  +1 x462 = +12
 c103: +1 x70 +1 x126 -1 x174 -1 x182 -1 x190 -1 x207 -1 x215 -1 x223 +1 x246 +1 x302 +1 x358 +1 x414
  +1 x470 = +12
 c104: +1 x78 +1 x134 +1 x190 -1 x230 -1 x238 -1 x246 -1 x263 -1 x271 -1 x279 +1 x310 +1 x366 +1 x422
  +1 x478 = +9
 c105: +1 x95 +1 x151 +1 x207 +1 x263 +1 x319 -1 x342 -1 x350 -1 x358 -1 x366 -1 x383 -1 x391 +1 x439
  +1 x495 = +9
 c106: +1 x103 +1 x159 +1 x215 +1 x271 +1 x327 +1 x383 -1 x398 -1 x406 -1 x414 -1 x422 -1 x439 -1 x447
  +1 x503 = +14
 c107: +1 x111 +1 x167 +1 x223 +1 x279 +1 x335 +1 x391 +1 x447 -1 x454 -1 x462 -1 x470 -1 x478 -1 x495
  -1 x503 = +11
 c108: -1 x63 -1 x71 -1 x79 -1 x87 -1 x104 -1 x112 +1 x119 +1 x175 +1 x231 +1 x287 +1 x343 +1 x399 +1 x455
  = +5
 c109: +1 x63 -1 x119 -1 x127 -1 x135 -1 x143 -1 x160 -1 x168 +1 x183 +1 x239 +1 x295 +1 x351 +1 x407
  +1 x463 = +11
 c110: +1 x71 +1 x127 -1 x175 -1 x183 -1 x191 -1 x199 -1 x216 -1 x224 +1 x247 +1 x303 +1 x359 +1 x415
  +1 x471 = +11
 c111: +1 x79 +1 x135 +1 x191 -1 x231 -1 x239 -1 x247 -1 x255 -1 x272 -1 x280 +1 x311 +1 x367 +1 x423
  +1 x479 = +7
 c112: +1 x87 +1 x143 +1 x199 +1 x255 -1 x287 -1 x295 -1 x303 -1 x311 -1 x328 -1 x336 +1 x375 +1 x431
  +1 x487 = +9
 c113: +1 x104 +1 x160 +1 x216 +1 x272 +1 x328 +1 x384 -1 x399 -1 x407 -1 x415 -1 x423 -1 x431 -1 x448
  +1 x504 = +15
 c114: +1 x112 +1 x168 +1 x224 +1 x280 +1 x336 +1 x392 +1 x448 -1 x455 -1 x463 -1 x471 -1 x479 -1 x487
  -1 x504 = +12
 c115: -1 x64 -1 x72 -1 x80 -1 x88 -1 x96 -1 x113 +1 x120 +1 x176 +1 x232 +1 x288 +1 x344 +1 x400 +1 x456
  = +6
 c116: +1 x64 -1 x120 -1 x128 -1 x136 -1 x144 -1 x152 -1 x169 +1 x184 +1 x240 +1 x296 +1 x352 +1 x408
  +1 x464 = +9
 c117: +1 x72 +1 x128 -1 x176 -1 x184 -1 x192 -1 x200 -1 x208 -1 x225 +1 x248 +1 x304 +1 x360 +1 x416
  +1 x472 = +7
 c118: +1 x80 +1 x136 +1 x192 -1 x232 -1 x240 -1 x248 -1 x256 -1 x264 -1 x281 +1 x312 +1 x368 +1 x424
  +1 x480 = +14
 c119: +1 x88 +1 x144 +1 x200 +1 x256 -1 x288 -1 x296 -1 x304 -1 x312 -1 x320 -1 x337 +1 x376 +1 x432
  +1 x488 = +10
 c120: +1 x96 +1 x152 +1 x208 +1 x264 +1 x320 -1 x344 -1 x352 -1 x360 -1 x368 -1 x376 -1 x393 +1 x440
  +1 x496 = +12
 c121: +1 x113 +1 x169 +1 x225 +1 x281 +1 x337 +1 x393 +1 x449 -1 x456 -1 x464 -1 x472 -1 x480 -1 x488
  -1 x496 = +7
 c122: -1 x65 -1 x73 -1 x81 -1 x89 -1 x97 -1 x105 +1 x121 +1 x177 +1 x233 +1 x289 +1 x345 +1 x401 +1 x457
  = +11
 c123: +1 x65 -1 x121 -1 x129 -1 x137 -1 x145 -1 x153 -1 x161 +1 x185 +1 x241 +1 x297 +1 x353 +1 x409
  +1 x465 = +7
 c124: +1 x73 +1 x129 -1 x177 -1 x185 -1 x193 -1 x201 -1 x209 -1 x217 +1 x249 +1 x305 +1 x361 +1 x417
  +1 x473 = +8
 c125: +1 x81 +1 x137 +1 x193 -1 x233 -1 x241 -1 x249 -1 x257 -1 x265 -1 x273 +1 x313 +1 x369 +1 x425
  +1 x481 = +6
 c126: +1 x89 +1 x145 +1 x201 +1 x257 -1 x289 -1 x297 -1 x305 -1 x313 -1 x321 -1 x329 +1 x377 +1 x433
  +1 x489 = +10
 c127: +1 x97 +1 x153 +1 x209 +1 x265 +1 x321 -1 x345 -1 x353 -1 x361 -1 x369 -1 x377 -1 x385 +1 x441
  +1 x497 = +5
 c128: +1 x105 +1 x161 +1 x217 +1 x273 +1 x329 +1 x385 -1 x401 -1 x409 -1 x417 -1 x425 -1 x433 -1 x441
  +1 x505 = +14
 c129: +1 x1 +62.69 x2 -1 x58 >= +62.69
 c130: +1 x1 +62.69 x3 -1 x66 >= +62.69
 c131: +1 x1 +62.69 x4 -1 x74 >= +62.69
 c132: +1 x1 +62.69 x5 -1 x82 >= +62.69
 c133: +1 x1 +62.69 x6 -1 x90 >= +62.69
 c134: +1 x1 +62.69 x7 -1 x98 >= +62.69
 c135: +1 x1 +62.69 x8 -1 x106 >= +62.69
 c136: +1 x1 +62.69 x9 -1 x114 >= +62.69
 c137: +1 x1 +62.69 x10 -1 x122 >= +62.69
 c138: +1 x1 +62.69 x11 -1 x130 >= +62.69
 c139: +1 x1 +62.69 x12 -1 x138 >= +62.69
 c140: +1 x1 +62.69 x13 -1 x146 >= +62.69
 c141: +1 x1 +62.69 x14 -1 x154 >= +62.69
 c142: +1 x1 +62.69 x15 -1 x162 >= +62.69
 c143: +1 x1 +62.69 x16 -1 x170 >= +62.69
 c144: +1 x1 +62.69 x17 -1 x178 >= +62.69
 c145: +1 x1 +62.69 x18 -1 x186 >= +62.69
 c146: +1 x1 +62.69 x19 -1 x194 >= +62.69
 c147: +1 x1 +62.69 x20 -1 x202 >= +62.69
 c148: +1 x1 +62.69 x21 -1 x210 >= +62.69
 c149: +1 x1 +62.69 x22 -1 x218 >= +62.69
 c150: +1 x1 +62.69 x23 -1 x226 >= +62.69
 c151: +1 x1 +62.69 x24 -1 x234 >= +62.69
 c152: +1 x1 +62.69 x25 -1 x242 >= +62.69
 c153: +1 x1 +62.69 x26 -1 x250 >= +62.69
 c154: +1 x1 +62.69 x27 -1 x258 >= +62.69
 c155: +1 x1 +62.69 x28 -1 x266 >= +62.69
 c156: +1 x1 +62.69 x29 -1 x274 >= +62.69
 c157: +1 x1 +62.69 x30 -1 x282 >= +62.69
 c158: +1 x1 +62.69 x31 -1 x290 >= +62.69
 c159: +1 x1 +62.69 x32 -1 x298 >= +62.69
 c160: +1 x1 +62.69 x33 -1 x306 >= +62.69
 c161: +1 x1 +62.69 x34 -1 x314 >= +62.69
 c162: +1 x1 +62.69 x35 -1 x322 >= +62.69
 c163: +1 x1 +62.69 x36 -1 x330 >= +62.69
 c164: +1 x1 +62.69 x37 -1 x338 >= +62.69
 c165: +1 x1 +62.69 x38 -1 x346 >= +62.69
 c166: +1 x1 +62.69 x39 -1 x354 >= +62.69
 c167: +1 x1 +62.69 x40 -1 x362 >= +62.69
 c168: +1 x1 +62.69 x41 -1 x370 >= +62.69
 c169: +1 x1 +62.69 x42 -1 x378 >= +62.69
 c170: +1 x1 +62.69 x43 -1 x386 >= +62.69
 c171: +1 x1 +62.69 x44 -1 x394 >= +62.69
 c172: +1 x1 +62.69 x45 -1 x402 >= +62.69
 c173: +1 x1 +62.69 x46 -1 x410 >= +62.69
 c174: +1 x1 +62.69 x47 -1 x418 >= +62.69
 c175: +1 x1 +62.69 x48 -1 x426 >= +62.69
 c176: +1 x1 +62.69 x49 -1 x434 >= +62.69
 c177: +1 x1 +62.69 x50 -1 x442 >= +62.69
 c178: +1 x1 +62.69 x51 -1 x450 >= +62.69
 c179: +1 x1 +62.69 x52 -1 x458 >= +62.69
 c180: +1 x1 +62.69 x53 -1 x466 >= +62.69
 c181: +1 x1 +62.69 x54 -1 x474 >= +62.69
 c182: +1 x1 +62.69 x55 -1 x482 >= +62.69
 c183: +1 x1 +62.69 x56 -1 x490 >= +62.69
 c184: +1 x1 +62.69 x57 -1 x498 >= +62.69
 c185: -66.5 x2 +1 x59 <= +0
 c186: -50 x2 +1 x60 <= +0
 c187: -56 x2 +1 x61 <= +0
 c188: -66.5 x2 +1 x62 <= +0
 c189: -65 x2 +1 x63 <= +0
 c190: -59 x2 +1 x64 <= +0
 c191: -50 x2 +1 x65 <= +0
 c192: -66.5 x3 +1 x67 <= +0
 c193: -66.5 x3 +1 x68 <= +0
 c194: -56 x3 +1 x69 <= +0
 c195: -66.5 x3 +1 x70 <= +0
 c196: -65 x3 +1 x71 <= +0
 c197: -59 x3 +1 x72 <= +0
 c198: -50 x3 +1 x73 <= +0
 c199: -66.5 x4 +1 x75 <= +0
 c200: -66.5 x4 +1 x76 <= +0
 c201: -50 x4 +1 x77 <= +0
 c202: -66.5 x4 +1 x78 <= +0
 c203: -65 x4 +1 x79 <= +0
 c204: -59 x4 +1 x80 <= +0
 c205: -50 x4 +1 x81 <= +0
 c206: -66.5 x5 +1 x83 <= +0
 c207: -66.5 x5 +1 x84 <= +0
 c208: -50 x5 +1 x85 <= +0
 c209: -56 x5 +1 x86 <= +0
 c210: -65 x5 +1 x87 <= +0
 c211: -59 x5 +1 x88 <= +0
 c212: -50 x5 +1 x89 <= +0
 c213: -66.5 x6 +1 x91 <= +0
 c214: -66.5 x6 +1 x92 <= +0
 c215: -50 x6 +1 x93 <= +0
 c216: -56 x6 +1 x94 <= +0
 c217: -66.5 x6 +1 x95 <= +0
 c218: -59 x6 +1 x96 <= +0
 c219: -50 x6 +1 x97 <= +0
 c220: -66.5 x7 +1 x99 <= +0
 c221: -66.5 x7 +1 x100 <= +0
 c222: -50 x7 +1 x101 <= +0
 c223: -56 x7 +1 x102 <= +0
 c224: -66.5 x7 +1 x103 <= +0
 c225: -65 x7 +1 x104 <= +0
 c226: -50 x7 +1 x105 <= +0
 c227: -66.5 x8 +1 x107 <= +0
 c228: -66.5 x8 +1 x108 <= +0
 c229: -50 x8 +1 x109 <= +0
 c230: -56 x8 +1 x110 <= +0
 c231: -66.5 x8 +1 x111 <= +0
 c232: -65 x8 +1 x112 <= +0
 c233: -59 x8 +1 x113 <= +0
 c234: -66.5 x9 +1 x115 <= +0
 c235: -54 x9 +1 x116 <= +0
 c236: -55 x9 +1 x117 <= +0
 c237: -63 x9 +1 x118 <= +0
 c238: -59 x9 +1 x119 <= +0
 c239: -56 x9 +1 x120 <= +0
 c240: -54 x9 +1 x121 <= +0
 c241: -64 x10 +1 x123 <= +0
 c242: -66.5 x10 +1 x124 <= +0
 c243: -55 x10 +1 x125 <= +0
 c244: -63 x10 +1 x126 <= +0
 c245: -59 x10 +1 x127 <= +0
 c246: -56 x10 +1 x128 <= +0
 c247: -54 x10 +1 x129 <= +0
 c248: -64 x11 +1 x131 <= +0
 c249: -66.5 x11 +1 x132 <= +0
 c250: -54 x11 +1 x133 <= +0
 c251: -63 x11 +1 x134 <= +0
 c252: -59 x11 +1 x135 <= +0
 c253: -56 x11 +1 x136 <= +0
 c254: -54 x11 +1 x137 <= +0
 c255: -64 x12 +1 x139 <= +0
 c256: -66.5 x12 +1 x140 <= +0
 c257: -54 x12 +1 x141 <= +0
 c258: -55 x12 +1 x142 <= +0
 c259: -59 x12 +1 x143 <= +0
 c260: -56 x12 +1 x144 <= +0
 c261: -54 x12 +1 x145 <= +0
 c262: -64 x13 +1 x147 <= +0
 c263: -66.5 x13 +1 x148 <= +0
 c264: -54 x13 +1 x149 <= +0
 c265: -55 x13 +1 x150 <= +0
 c266: -63 x13 +1 x151 <= +0
 c267: -56 x13 +1 x152 <= +0
 c268: -54 x13 +1 x153 <= +0
 c269: -64 x14 +1 x155 <= +0
 c270: -66.5 x14 +1 x156 <= +0
 c271: -54 x14 +1 x157 <= +0
 c272: -55 x14 +1 x158 <= +0
 c273: -63 x14 +1 x159 <= +0
 c274: -59 x14 +1 x160 <= +0
 c275: -54 x14 +1 x161 <= +0
 c276: -64 x15 +1 x163 <= +0
 c277: -66.5 x15 +1 x164 <= +0
 c278: -54 x15 +1 x165 <= +0
 c279: -55 x15 +1 x166 <= +0
 c280: -63 x15 +1 x167 <= +0
 c281: -59 x15 +1 x168 <= +0
 c282: -56 x15 +1 x169 <= +0
 c283: -66 x16 +1 x171 <= +0
 c284: -63 x16 +1 x172 <= +0
 c285: -48 x16 +1 x173 <= +0
 c286: -63 x16 +1 x174 <= +0
 c287: -59 x16 +1 x175 <= +0
 c288: -58 x16 +1 x176 <= +0
 c289: -53 x16 +1 x177 <= +0
 c290: -66.5 x17 +1 x179 <= +0
 c291: -63 x17 +1 x180 <= +0
 c292: -48 x17 +1 x181 <= +0
 c293: -63 x17 +1 x182 <= +0
 c294: -59 x17 +1 x183 <= +0
 c295: -58 x17 +1 x184 <= +0
 c296: -53 x17 +1 x185 <= +0
 c297: -66.5 x18 +1 x187 <= +0
 c298: -66 x18 +1 x188 <= +0
 c299: -63 x18 +1 x189 <= +0
 c300: -63 x18 +1 x190 <= +0
 c301: -59 x18 +1 x191 <= +0
 c302: -58 x18 +1 x192 <= +0
 c303: -53 x18 +1 x193 <= +0
 c304: -66.5 x19 +1 x195 <= +0
 c305: -66 x19 +1 x196 <= +0
 c306: -63 x19 +1 x197 <= +0
 c307: -48 x19 +1 x198 <= +0
 c308: -59 x19 +1 x199 <= +0
 c309: -58 x19 +1 x200 <= +0
 c310: -53 x19 +1 x201 <= +0
 c311: -66.5 x20 +1 x203 <= +0
 c312: -66 x20 +1 x204 <= +0
 c313: -63 x20 +1 x205 <= +0
 c314: -48 x20 +1 x206 <= +0
 c315: -63 x20 +1 x207 <= +0
 c316: -58 x20 +1 x208 <= +0
 c317: -53 x20 +1 x209 <= +0
 c318: -66.5 x21 +1 x211 <= +0
 c319: -66 x21 +1 x212 <= +0
 c320: -63 x21 +1 x213 <= +0
 c321: -48 x21 +1 x214 <= +0
 c322: -63 x21 +1 x215 <= +0
 c323: -59 x21 +1 x216 <= +0
 c324: -53 x21 +1 x217 <= +0
 c325: -66.5 x22 +1 x219 <= +0
 c326: -66 x22 +1 x220 <= +0
 c327: -63 x22 +1 x221 <= +0
 c328: -48 x22 +1 x222 <= +0
 c329: -63 x22 +1 x223 <= +0
 c330: -59 x22 +1 x224 <= +0
 c331: -58 x22 +1 x225 <= +0
 c332: -66.5 x23 +1 x227 <= +0
 c333: -52 x23 +1 x228 <= +0
 c334: -63 x23 +1 x229 <= +0
 c335: -66 x23 +1 x230 <= +0
 c336: -63 x23 +1 x231 <= +0
 c337: -51 x23 +1 x232 <= +0
 c338: -55 x23 +1 x233 <= +0
 c339: -61 x24 +1 x235 <= +0
 c340: -52 x24 +1 x236 <= +0
 c341: -63 x24 +1 x237 <= +0
 c342: -66 x24 +1 x238 <= +0
 c343: -63 x24 +1 x239 <= +0
 c344: -51 x24 +1 x240 <= +0
 c345: -55 x24 +1 x241 <= +0
 c346: -61 x25 +1 x243 <= +0
 c347: -66.5 x25 +1 x244 <= +0
 c348: -63 x25 +1 x245 <= +0
 c349: -66 x25 +1 x246 <= +0
 c350: -63 x25 +1 x247 <= +0
 c351: -51 x25 +1 x248 <= +0
 c352: -55 x25 +1 x249 <= +0
 c353: -61 x26 +1 x251 <= +0
 c354: -66.5 x26 +1 x252 <= +0
 c355: -52 x26 +1 x253 <= +0
 c356: -63 x26 +1 x254 <= +0
 c357: -63 x26 +1 x255 <= +0
 c358: -51 x26 +1 x256 <= +0
 c359: -55 x26 +1 x257 <= +0
 c360: -61 x27 +1 x259 <= +0
 c361: -66.5 x27 +1 x260 <= +0
 c362: -52 x27 +1 x261 <= +0
 c363: -63 x27 +1 x262 <= +0
 c364: -66 x27 +1 x263 <= +0
 c365: -51 x27 +1 x264 <= +0
 c366: -55 x27 +1 x265 <= +0
 c367: -61 x28 +1 x267 <= +0
 c368: -66.5 x28 +1 x268 <= +0
 c369: -52 x28 +1 x269 <= +0
 c370: -63 x28 +1 x270 <= +0
 c371: -66 x28 +1 x271 <= +0
 c372: -63 x28 +1 x272 <= +0
 c373: -55 x28 +1 x273 <= +0
 c374: -61 x29 +1 x275 <= +0
 c375: -66.5 x29 +1 x276 <= +0
 c376: -52 x29 +1 x277 <= +0
 c377: -63 x29 +1 x278 <= +0
 c378: -66 x29 +1 x279 <= +0
 c379: -63 x29 +1 x280 <= +0
 c380: -51 x29 +1 x281 <= +0
 c381: -66.5 x30 +1 x283 <= +0
 c382: -57 x30 +1 x284 <= +0
 c383: -56 x30 +1 x285 <= +0
 c384: -66.5 x30 +1 x286 <= +0
 c385: -61 x30 +1 x287 <= +0
 c386: -55 x30 +1 x288 <= +0
 c387: -51 x30 +1 x289 <= +0
 c388: -62 x31 +1 x291 <= +0
 c389: -57 x31 +1 x292 <= +0
 c390: -56 x31 +1 x293 <= +0
 c391: -66.5 x31 +1 x294 <= +0
 c392: -61 x31 +1 x295 <= +0
 c393: -55 x31 +1 x296 <= +0
 c394: -51 x31 +1 x297 <= +0
 c395: -62 x32 +1 x299 <= +0
 c396: -66.5 x32 +1 x300 <= +0
 c397: -56 x32 +1 x301 <= +0
 c398: -66.5 x32 +1 x302 <= +0
 c399: -61 x32 +1 x303 <= +0
 c400: -55 x32 +1 x304 <= +0
 c401: -51 x32 +1 x305 <= +0
 c402: -62 x33 +1 x307 <= +0
 c403: -66.5 x33 +1 x308 <= +0
 c404: -57 x33 +1 x309 <= +0
 c405: -66.5 x33 +1 x310 <= +0
 c406: -61 x33 +1 x311 <= +0
 c407: -55 x33 +1 x312 <= +0
 c408: -51 x33 +1 x313 <= +0
 c409: -62 x34 +1 x315 <= +0
 c410: -66.5 x34 +1 x316 <= +0
 c411: -57 x34 +1 x317 <= +0
 c412: -56 x34 +1 x318 <= +0
 c413: -66.5 x34 +1 x319 <= +0
 c414: -55 x34 +1 x320 <= +0
 c415: -51 x34 +1 x321 <= +0
 c416: -62 x35 +1 x323 <= +0
 c417: -66.5 x35 +1 x324 <= +0
 c418: -57 x35 +1 x325 <= +0
 c419: -56 x35 +1 x326 <= +0
 c420: -66.5 x35 +1 x327 <= +0
 c421: -61 x35 +1 x328 <= +0
 c422: -51 x35 +1 x329 <= +0
 c423: -62 x36 +1 x331 <= +0
 c424: -66.5 x36 +1 x332 <= +0
 c425: -57 x36 +1 x333 <= +0
 c426: -56 x36 +1 x334 <= +0
 c427: -66.5 x36 +1 x335 <= +0
 c428: -61 x36 +1 x336 <= +0
 c429: -55 x36 +1 x337 <= +0
 c430: -66.5 x37 +1 x339 <= +0
 c431: -58 x37 +1 x340 <= +0
 c432: -57 x37 +1 x341 <= +0
 c433: -66 x37 +1 x342 <= +0
 c434: -66.5 x37 +1 x343 <= +0
 c435: -53 x37 +1 x344 <= +0
 c436: -56 x37 +1 x345 <= +0
 c437: -61 x38 +1 x347 <= +0
 c438: -58 x38 +1 x348 <= +0
 c439: -57 x38 +1 x349 <= +0
 c440: -66 x38 +1 x350 <= +0
 c441: -66.5 x38 +1 x351 <= +0
 c442: -53 x38 +1 x352 <= +0
 c443: -56 x38 +1 x353 <= +0
 c444: -61 x39 +1 x355 <= +0
 c445: -66.5 x39 +1 x356 <= +0
 c446: -57 x39 +1 x357 <= +0
 c447: -66 x39 +1 x358 <= +0
 c448: -66.5 x39 +1 x359 <= +0
 c449: -53 x39 +1 x360 <= +0
 c450: -56 x39 +1 x361 <= +0
 c451: -61 x40 +1 x363 <= +0
 c452: -66.5 x40 +1 x364 <= +0
 c453: -58 x40 +1 x365 <= +0
 c454: -66 x40 +1 x366 <= +0
 c455: -66.5 x40 +1 x367 <= +0
 c456: -53 x40 +1 x368 <= +0
 c457: -56 x40 +1 x369 <= +0
 c458: -61 x41 +1 x371 <= +0
 c459: -66.5 x41 +1 x372 <= +0
 c460: -58 x41 +1 x373 <= +0
 c461: -57 x41 +1 x374 <= +0
 c462: -66.5 x41 +1 x375 <= +0
 c463: -53 x41 +1 x376 <= +0
 c464: -56 x41 +1 x377 <= +0
 c465: -61 x42 +1 x379 <= +0
 c466: -66.5 x42 +1 x380 <= +0
 c467: -58 x42 +1 x381 <= +0
 c468: -57 x42 +1 x382 <= +0
 c469: -66 x42 +1 x383 <= +0
 c470: -66.5 x42 +1 x384 <= +0
 c471: -56 x42 +1 x385 <= +0
 c472: -61 x43 +1 x387 <= +0
 c473: -66.5 x43 +1 x388 <= +0
 c474: -58 x43 +1 x389 <= +0
 c475: -57 x43 +1 x390 <= +0
 c476: -66 x43 +1 x391 <= +0
 c477: -66.5 x43 +1 x392 <= +0
 c478: -53 x43 +1 x393 <= +0
 c479: -66.5 x44 +1 x395 <= +0
 c480: -52 x44 +1 x396 <= +0
 c481: -52 x44 +1 x397 <= +0
 c482: -61 x44 +1 x398 <= +0
 c483: -55 x44 +1 x399 <= +0
 c484: -65 x44 +1 x400 <= +0
 c485: -47 x44 +1 x401 <= +0
 c486: -66.5 x45 +1 x403 <= +0
 c487: -52 x45 +1 x404 <= +0
 c488: -52 x45 +1 x405 <= +0
 c489: -61 x45 +1 x406 <= +0
 c490: -55 x45 +1 x407 <= +0
 c491: -65 x45 +1 x408 <= +0
 c492: -47 x45 +1 x409 <= +0
 c493: -66.5 x46 +1 x411 <= +0
 c494: -66.5 x46 +1 x412 <= +0
 c495: -52 x46 +1 x413 <= +0
 c496: -61 x46 +1 x414 <= +0
 c497: -55 x46 +1 x415 <= +0
 c498: -65 x46 +1 x416 <= +0
 c499: -47 x46 +1 x417 <= +0
 c500: -66.5 x47 +1 x419 <= +0
 c501: -66.5 x47 +1 x420 <= +0
 c502: -52 x47 +1 x421 <= +0
 c503: -61 x47 +1 x422 <= +0
 c504: -55 x47 +1 x423 <= +0
 c505: -65 x47 +1 x424 <= +0
 c506: -47 x47 +1 x425 <= +0
 c507: -66.5 x48 +1 x427 <= +0
 c508: -66.5 x48 +1 x428 <= +0
 c509: -52 x48 +1 x429 <= +0
 c510: -52 x48 +1 x430 <= +0
 c511: -55 x48 +1 x431 <= +0
 c512: -65 x48 +1 x432 <= +0
 c513: -47 x48 +1 x433 <= +0
 c514: -66.5 x49 +1 x435 <= +0
 c515: -66.5 x49 +1 x436 <= +0
 c516: -52 x49 +1 x437 <= +0
 c517: -52 x49 +1 x438 <= +0
 c518: -61 x49 +1 x439 <= +0
 c519: -65 x49 +1 x440 <= +0
 c520: -47 x49 +1 x441 <= +0
 c521: -66.5 x50 +1 x443 <= +0
 c522: -66.5 x50 +1 x444 <= +0
 c523: -52 x50 +1 x445 <= +0
 c524: -52 x50 +1 x446 <= +0
 c525: -61 x50 +1 x447 <= +0
 c526: -55 x50 +1 x448 <= +0
 c527: -65 x50 +1 x449 <= +0
 c528: -66.5 x51 +1 x451 <= +0
 c529: -55 x51 +1 x452 <= +0
 c530: -54 x51 +1 x453 <= +0
 c531: -64 x51 +1 x454 <= +0
 c532: -58 x51 +1 x455 <= +0
 c533: -58 x51 +1 x456 <= +0
 c534: -61 x51 +1 x457 <= +0
 c535: -61 x52 +1 x459 <= +0
 c536: -55 x52 +1 x460 <= +0
 c537: -54 x52 +1 x461 <= +0
 c538: -64 x52 +1 x462 <= +0
 c539: -58 x52 +1 x463 <= +0
 c540: -58 x52 +1 x464 <= +0
 c541: -61 x52 +1 x465 <= +0
 c542: -61 x53 +1 x467 <= +0
 c543: -66.5 x53 +1 x468 <= +0
 c544: -54 x53 +1 x469 <= +0
 c545: -64 x53 +1 x470 <= +0
 c546: -58 x53 +1 x471 <= +0
 c547: -58 x53 +1 x472 <= +0
 c548: -61 x53 +1 x473 <= +0
 c549: -61 x54 +1 x475 <= +0
 c550: -66.5 x54 +1 x476 <= +0
 c551: -55 x54 +1 x477 <= +0
 c552: -64 x54 +1 x478 <= +0
 c553: -58 x54 +1 x479 <= +0
 c554: -58 x54 +1 x480 <= +0
 c555: -61 x54 +1 x481 <= +0
 c556: -61 x55 +1 x483 <= +0
 c557: -66.5 x55 +1 x484 <= +0
 c558: -55 x55 +1 x485 <= +0
 c559: -54 x55 +1 x486 <= +0
 c560: -58 x55 +1 x487 <= +0
 c561: -58 x55 +1 x488 <= +0
 c562: -61 x55 +1 x489 <= +0
 c563: -61 x56 +1 x491 <= +0
 c564: -66.5 x56 +1 x492 <= +0
 c565: -55 x56 +1 x493 <= +0
 c566: -54 x56 +1 x494 <= +0
 c567: -64 x56 +1 x495 <= +0
 c568: -58 x56 +1 x496 <= +0
 c569: -61 x56 +1 x497 <= +0
 c570: -61 x57 +1 x499 <= +0
 c571: -66.5 x57 +1 x500 <= +0
 c572: -55 x57 +1 x501 <= +0
 c573: -54 x57 +1 x502 <= +0
 c574: -64 x57 +1 x503 <= +0
 c575: -58 x57 +1 x504 <= +0
 c576: -61 x57 +1 x505 <= +0
 c577: -1 x59 -1 x67 -1 x75 -1 x83 -1 x91 -1 x99 -1 x107 -1 x123 -1 x131 -1 x139 -1 x147 -1 x155 -1 x163
  -1 x179 -1 x187 -1 x195 -1 x203 -1 x211 -1 x219 -1 x235 -1 x243 -1 x251 -1 x259 -1 x267 -1 x275 -1 x291
  -1 x299 -1 x307 -1 x315 -1 x323 -1 x331 -1 x347 -1 x355 -1 x363 -1 x371 -1 x379 -1 x387 -1 x403 -1 x411
  -1 x419 -1 x427 -1 x435 -1 x443 -1 x459 -1 x467 -1 x475 -1 x483 -1 x491 -1 x499 +1 x506 = +0
 c578: -1 x68 -1 x76 -1 x84 -1 x92 -1 x100 -1 x108 -1 x115 -1 x124 -1 x132 -1 x140 -1 x148 -1 x156 -1 x164
  -1 x171 -1 x188 -1 x196 -1 x204 -1 x212 -1 x220 -1 x227 -1 x244 -1 x252 -1 x260 -1 x268 -1 x276 -1 x283
  -1 x300 -1 x308 -1 x316 -1 x324 -1 x332 -1 x339 -1 x356 -1 x364 -1 x372 -1 x380 -1 x388 -1 x395 -1 x412
  -1 x420 -1 x428 -1 x436 -1 x444 -1 x451 -1 x468 -1 x476 -1 x484 -1 x492 -1 x500 +1 x507 = +0
 c579: -1 x60 -1 x77 -1 x85 -1 x93 -1 x101 -1 x109 -1 x116 -1 x133 -1 x141 -1 x149 -1 x157 -1 x165 -1 x172
  -1 x180 -1 x189 -1 x197 -1 x205 -1 x213 -1 x221 -1 x228 -1 x236 -1 x253 -1 x261 -1 x269 -1 x277 -1 x284
  -1 x292 -1 x309 -1 x317 -1 x325 -1 x333 -1 x340 -1 x348 -1 x365 -1 x373 -1 x381 -1 x389 -1 x396 -1 x404
  -1 x421 -1 x429 -1 x437 -1 x445 -1 x452 -1 x460 -1 x477 -1 x485 -1 x493 -1 x501 +1 x508 = +0
 c580: -1 x61 -1 x69 -1 x86 -1 x94 -1 x102 -1 x110 -1 x117 -1 x125 -1 x142 -1 x150 -1 x158 -1 x166 -1 x173
  -1 x181 -1 x198 -1 x206 -1 x214 -1 x222 -1 x229 -1 x237 -1 x245 -1 x254 -1 x262 -1 x270 -1 x278 -1 x285
  -1 x293 -1 x301 -1 x318 -1 x326 -1 x334 -1 x341 -1 x349 -1 x357 -1 x374 -1 x382 -1 x390 -1 x397 -1 x405
  -1 x413 -1 x430 -1 x438 -1 x446 -1 x453 -1 x461 -1 x469 -1 x486 -1 x494 -1 x502 +1 x509 = +0
 c581: -1 x62 -1 x70 -1 x78 -1 x95 -1 x103 -1 x111 -1 x118 -1 x126 -1 x134 -1 x151 -1 x159 -1 x167 -1 x174
  -1 x182 -1 x190 -1 x207 -1 x215 -1 x223 -1 x230 -1 x238 -1 x246 -1 x263 -1 x271 -1 x279 -1 x286 -1 x294
  -1 x302 -1 x310 -1 x319 -1 x327 -1 x335 -1 x342 -1 x350 -1 x358 -1 x366 -1 x383 -1 x391 -1 x398 -1 x406
  -1 x414 -1 x422 -1 x439 -1 x447 -1 x454 -1 x462 -1 x470 -1 x478 -1 x495 -1 x503 +1 x510 = +0
 c582: -1 x63 -1 x71 -1 x79 -1 x87 -1 x104 -1 x112 -1 x119 -1 x127 -1 x135 -1 x143 -1 x160 -1 x168 -1 x175
  -1 x183 -1 x191 -1 x199 -1 x216 -1 x224 -1 x231 -1 x239 -1 x247 -1 x255 -1 x272 -1 x280 -1 x287 -1 x295
  -1 x303 -1 x311 -1 x328 -1 x336 -1 x343 -1 x351 -1 x359 -1 x367 -1 x375 -1 x384 -1 x392 -1 x399 -1 x407
  -1 x415 -1 x423 -1 x431 -1 x448 -1 x455 -1 x463 -1 x471 -1 x479 -1 x487 -1 x504 +1 x511 = +0
 c583: -1 x64 -1 x72 -1 x80 -1 x88 -1 x96 -1 x113 -1 x120 -1 x128 -1 x136 -1 x144 -1 x152 -1 x169 -1 x176
  -1 x184 -1 x192 -1 x200 -1 x208 -1 x225 -1 x232 -1 x240 -1 x248 -1 x256 -1 x264 -1 x281 -1 x288 -1 x296
  -1 x304 -1 x312 -1 x320 -1 x337 -1 x344 -1 x352 -1 x360 -1 x368 -1 x376 -1 x393 -1 x400 -1 x408 -1 x416
  -1 x424 -1 x432 -1 x440 -1 x449 -1 x456 -1 x464 -1 x472 -1 x480 -1 x488 -1 x496 +1 x512 = +0
 c584: -1 x65 -1 x73 -1 x81 -1 x89 -1 x97 -1 x105 -1 x121 -1 x129 -1 x137 -1 x145 -1 x153 -1 x161 -1 x177
  -1 x185 -1 x193 -1 x201 -1 x209 -1 x217 -1 x233 -1 x241 -1 x249 -1 x257 -1 x265 -1 x273 -1 x289 -1 x297
  -1 x305 -1 x313 -1 x321 -1 x329 -1 x345 -1 x353 -1 x361 -1 x369 -1 x377 -1 x385 -1 x401 -1 x409 -1 x417
  -1 x425 -1 x433 -1 x441 -1 x457 -1 x465 -1 x473 -1 x481 -1 x489 -1 x497 -1 x505 +1 x513 = +0
 c585: +10 x2 +7 x3 +13 x4 +12 x5 +13 x6 +6 x7 +13 x8 +1 x506 >= +154
 c586: +14 x9 +15 x10 +13 x11 +12 x12 +9 x13 +9 x14 +9 x15 +1 x507 >= +171
 c587: +13 x16 +9 x17 +11 x18 +6 x19 +5 x20 +11 x21 +8 x22 +1 x508 >= +131
 c588: +7 x23 +8 x24 +15 x25 +7 x26 +6 x27 +11 x28 +9 x29 +1 x509 >= +132
 c589: +8 x30 +12 x31 +12 x32 +9 x33 +9 x34 +14 x35 +11 x36 +1 x510 >= +158
 c590: +5 x37 +11 x38 +11 x39 +7 x40 +9 x41 +15 x42 +12 x43 +1 x511 >= +145
 c591: +6 x44 +9 x45 +7 x46 +14 x47 +10 x48 +12 x49 +7 x50 +1 x512 >= +136
 c592: +11 x51 +7 x52 +8 x53 +6 x54 +10 x55 +5 x56 +14 x57 +1 x513 >= +127
 c593: -1 x58 -1 x66 -1 x74 -1 x82 -1 x90 -1 x98 -1 x106 +1 x514 = +0
 c594: +1 x1 -0.5 x514 >= +0
 c595: -1 x114 -1 x122 -1 x130 -1 x138 -1 x146 -1 x154 -1 x162 +1 x515 = +0
 c596: +1 x1 -0.5 x515 >= +0
 c597: -1 x170 -1 x178 -1 x186 -1 x194 -1 x202 -1 x210 -1 x218 +1 x516 = +0
 c598: +1 x1 -0.5 x516 >= +0
 c599: -1 x226 -1 x234 -1 x242 -1 x250 -1 x258 -1 x266 -1 x274 +1 x517 = +0
 c600: +1 x1 -0.5 x517 >= +0
 c601: -1 x282 -1 x290 -1 x298 -1 x306 -1 x314 -1 x322 -1 x330 +1 x518 = +0
 c602: +1 x1 -0.5 x518 >= +0
 c603: -1 x338 -1 x346 -1 x354 -1 x362 -1 x370 -1 x378 -1 x386 +1 x519 = +0
 c604: +1 x1 -0.5 x519 >= +0
 c605: -1 x394 -1 x402 -1 x410 -1 x418 -1 x426 -1 x434 -1 x442 +1 x520 = +0
 c606: +1 x1 -0.5 x520 >= +0
 c607: -1 x450 -1 x458 -1 x466 -1 x474 -1 x482 -1 x490 -1 x498 +1 x521 = +0
 c608: +1 x1 -0.5 x521 >= +0
 c609: -10 x2 +1 x59 -1 x123 -1 x131 -1 x139 -1 x147 -1 x155 -1 x163 <= +0
 c610: -7 x3 +1 x67 -1 x179 -1 x187 -1 x195 -1 x203 -1 x211 -1 x219 <= +0
 c611: -13 x4 +1 x75 -1 x235 -1 x243 -1 x251 -1 x259 -1 x267 -1 x275 <= +0
 c612: -12 x5 +1 x83 -1 x291 -1 x299 -1 x307 -1 x315 -1 x323 -1 x331 <= +0
 c613: -13 x6 +1 x91 -1 x347 -1 x355 -1 x363 -1 x371 -1 x379 -1 x387 <= +0
 c614: -6 x7 +1 x99 -1 x403 -1 x411 -1 x419 -1 x427 -1 x435 -1 x443 <= +0
 c615: -13 x8 +1 x107 -1 x459 -1 x467 -1 x475 -1 x483 -1 x491 -1 x499 <= +0
 c616: -14 x9 -1 x68 -1 x76 -1 x84 -1 x92 -1 x100 -1 x108 +1 x115 <= +0
 c617: -15 x10 +1 x124 -1 x171 -1 x188 -1 x196 -1 x204 -1 x212 -1 x220 <= +0
 c618: -13 x11 +1 x132 -1 x227 -1 x244 -1 x252 -1 x260 -1 x268 -1 x276 <= +0
 c619: -12 x12 +1 x140 -1 x283 -1 x300 -1 x308 -1 x316 -1 x324 -1 x332 <= +0
 c620: -9 x13 +1 x148 -1 x339 -1 x356 -1 x364 -1 x372 -1 x380 -1 x388 <= +0
 c621: -9 x14 +1 x156 -1 x395 -1 x412 -1 x420 -1 x428 -1 x436 -1 x444 <= +0
 c622: -9 x15 +1 x164 -1 x451 -1 x468 -1 x476 -1 x484 -1 x492 -1 x500 <= +0
 c623: -13 x16 -1 x60 -1 x77 -1 x85 -1 x93 -1 x101 -1 x109 +1 x172 <= +0
 c624: -9 x17 -1 x116 -1 x133 -1 x141 -1 x149 -1 x157 -1 x165 +1 x180 <= +0
 c625: -11 x18 +1 x189 -1 x228 -1 x236 -1 x253 -1 x261 -1 x269 -1 x277 <= +0
 c626: -6 x19 +1 x197 -1 x284 -1 x292 -1 x309 -1 x317 -1 x325 -1 x333 <= +0
 c627: -5 x20 +1 x205 -1 x340 -1 x348 -1 x365 -1 x373 -1 x381 -1 x389 <= +0
 c628: -11 x21 +1 x213 -1 x396 -1 x404 -1 x421 -1 x429 -1 x437 -1 x445 <= +0
 c629: -8 x22 +1 x221 -1 x452 -1 x460 -1 x477 -1 x485 -1 x493 -1 x501 <= +0
 c630: -7 x23 -1 x61 -1 x69 -1 x86 -1 x94 -1 x102 -1 x110 +1 x229 <= +0
 c631: -8 x24 -1 x117 -1 x125 -1 x142 -1 x150 -1 x158 -1 x166 +1 x237 <= +0
 c632: -15 x25 -1 x173 -1 x181 -1 x198 -1 x206 -1 x214 -1 x222 +1 x245 <= +0
 c633: -7 x26 +1 x254 -1 x285 -1 x293 -1 x301 -1 x318 -1 x326 -1 x334 <= +0
 c634: -6 x27 +1 x262 -1 x341 -1 x349 -1 x357 -1 x374 -1 x382 -1 x390 <= +0
 c635: -11 x28 +1 x270 -1 x397 -1 x405 -1 x413 -1 x430 -1 x438 -1 x446 <= +0
 c636: -9 x29 +1 x278 -1 x453 -1 x461 -1 x469 -1 x486 -1 x494 -1 x502 <= +0
 c637: -8 x30 -1 x62 -1 x70 -1 x78 -1 x95 -1 x103 -1 x111 +1 x286 <= +0
 c638: -12 x31 -1 x118 -1 x126 -1 x134 -1 x151 -1 x159 -1 x167 +1 x294 <= +0
 c639: -12 x32 -1 x174 -1 x182 -1 x190 -1 x207 -1 x215 -1 x223 +1 x302 <= +0
 c640: -9 x33 -1 x230 -1 x238 -1 x246 -1 x263 -1 x271 -1 x279 +1 x310 <= +0
 c641: -9 x34 +1 x319 -1 x342 -1 x350 -1 x358 -1 x366 -1 x383 -1 x391 <= +0
 c642: -14 x35 +1 x327 -1 x398 -1 x406 -1 x414 -1 x422 -1 x439 -1 x447 <= +0
 c643: -11 x36 +1 x335 -1 x454 -1 x462 -1 x470 -1 x478 -1 x495 -1 x503 <= +0
 c644: -5 x37 -1 x63 -1 x71 -1 x79 -1 x87 -1 x104 -1 x112 +1 x343 <= +0
 c645: -11 x38 -1 x119 -1 x127 -1 x135 -1 x143 -1 x160 -1 x168 +1 x351 <= +0
 c646: -11 x39 -1 x175 -1 x183 -1 x191 -1 x199 -1 x216 -1 x224 +1 x359 <= +0
 c647: -7 x40 -1 x231 -1 x239 -1 x247 -1 x255 -1 x272 -1 x280 +1 x367 <= +0
 c648: -9 x41 -1 x287 -1 x295 -1 x303 -1 x311 -1 x328 -1 x336 +1 x375 <= +0
 c649: -15 x42 +1 x384 -1 x399 -1 x407 -1 x415 -1 x423 -1 x431 -1 x448 <= +0
 c650: -12 x43 +1 x392 -1 x455 -1 x463 -1 x471 -1 x479 -1 x487 -1 x504 <= +0
 c651: -6 x44 -1 x64 -1 x72 -1 x80 -1 x88 -1 x96 -1 x113 +1 x400 <= +0
 c652: -9 x45 -1 x120 -1 x128 -1 x136 -1 x144 -1 x152 -1 x169 +1 x408 <= +0
 c653: -7 x46 -1 x176 -1 x184 -1 x192 -1 x200 -1 x208 -1 x225 +1 x416 <= +0
 c654: -14 x47 -1 x232 -1 x240 -1 x248 -1 x256 -1 x264 -1 x281 +1 x424 <= +0
 c655: -10 x48 -1 x288 -1 x296 -1 x304 -1 x312 -1 x320 -1 x337 +1 x432 <= +0
 c656: -12 x49 -1 x344 -1 x352 -1 x360 -1 x368 -1 x376 -1 x393 +1 x440 <= +0
 c657: -7 x50 +1 x449 -1 x456 -1 x464 -1 x472 -1 x480 -1 x488 -1 x496 <= +0
 c658: -11 x51 -1 x65 -1 x73 -1 x81 -1 x89 -1 x97 -1 x105 +1 x457 <= +0
 c659: -7 x52 -1 x121 -1 x129 -1 x137 -1 x145 -1 x153 -1 x161 +1 x465 <= +0
 c660: -8 x53 -1 x177 -1 x185 -1 x193 -1 x201 -1 x209 -1 x217 +1 x473 <= +0
 c661: -6 x54 -1 x233 -1 x241 -1 x249 -1 x257 -1 x265 -1 x273 +1 x481 <= +0
 c662: -10 x55 -1 x289 -1 x297 -1 x305 -1 x313 -1 x321 -1 x329 +1 x489 <= +0
 c663: -5 x56 -1 x345 -1 x353 -1 x361 -1 x369 -1 x377 -1 x385 +1 x497 <= +0
 c664: -14 x57 -1 x401 -1 x409 -1 x417 -1 x425 -1 x433 -1 x441 +1 x505 <= +0
Bounds
 0 <= x56 <= 1
 0 <= x2 <= 1
 0 <= x3 <= 1
 0 <= x4 <= 1
 0 <= x5 <= 1
 0 <= x6 <= 1
 0 <= x7 <= 1
 0 <= x8 <= 1
 0 <= x9 <= 1
 0 <= x10 <= 1
 0 <= x11 <= 1
 0 <= x12 <= 1
 0 <= x13 <= 1
 0 <= x14 <= 1
 0 <= x15 <= 1
 0 <= x16 <= 1
 0 <= x17 <= 1
 0 <= x18 <= 1
 0 <= x19 <= 1
 0 <= x20 <= 1
 0 <= x21 <= 1
 0 <= x22 <= 1
 0 <= x23 <= 1
 0 <= x24 <= 1
 0 <= x25 <= 1
 0 <= x26 <= 1
 0 <= x27 <= 1
 0 <= x28 <= 1
 0 <= x29 <= 1
 0 <= x30 <= 1
 0 <= x31 <= 1
 0 <= x32 <= 1
 0 <= x33 <= 1
 0 <= x34 <= 1
 0 <= x35 <= 1
 0 <= x36 <= 1
 0 <= x37 <= 1
 0 <= x38 <= 1
 0 <= x39 <= 1
 0 <= x40 <= 1
 0 <= x41 <= 1
 0 <= x42 <= 1
 0 <= x43 <= 1
 0 <= x44 <= 1
 0 <= x45 <= 1
 0 <= x46 <= 1
 0 <= x47 <= 1
 0 <= x48 <= 1
 0 <= x49 <= 1
 0 <= x50 <= 1
 0 <= x51 <= 1
 0 <= x52 <= 1
 0 <= x53 <= 1
 0 <= x54 <= 1
 0 <= x55 <= 1
 0 <= x57 <= 1
 74 <= x514 <= 133
 81 <= x515 <= 133
 63 <= x516 <= 133
 63 <= x517 <= 133
 75 <= x518 <= 133
 70 <= x519 <= 133
 65 <= x520 <= 133
 61 <= x521 <= 133
Binaries
 x56 x2 x3 x4 x5 x6 x7 x8 x9 x10 x11 x12 x13 x14 x15 x16 x17 x18 x19 x20 x21 x22 x23 x24 x25 x26 x27 x28
 x29 x30 x31 x32 x33 x34 x35 x36 x37 x38 x39 x40 x41 x42 x43 x44 x45 x46 x47 x48 x49 x50 x51 x52 x53 x54
 x55 x57
End
